p edge 30 199 5
v 7 4 5 6 15 17 18 19
v 8 1 7 8 9 10 23 27 29
v 7 3 11 12 14 22 26 28
v 4 16 21 24 30
v 4 2 13 20 25
e 1 3
e 1 4
e 1 5
e 1 8
e 1 10
e 1 12
e 1 13
e 1 14
e 1 20
e 1 21
e 1 22
e 1 24
e 1 25
e 1 30
e 2 3
e 2 4
e 2 11
e 2 15
e 2 17
e 2 18
e 2 19
e 2 20
e 2 21
e 2 24
e 2 25
e 2 27
e 3 7
e 3 9
e 3 10
e 3 14
e 3 15
e 3 18
e 3 27
e 3 28
e 3 29
e 3 30
e 4 6
e 4 7
e 4 8
e 4 11
e 4 12
e 4 14
e 4 16
e 4 19
e 4 20
e 4 21
e 4 25
e 4 26
e 4 27
e 4 30
e 5 6
e 5 7
e 5 8
e 5 9
e 5 12
e 5 13
e 5 14
e 5 16
e 5 19
e 5 20
e 5 21
e 5 24
e 5 26
e 5 28
e 5 30
e 6 14
e 6 16
e 6 17
e 6 19
e 6 22
e 6 25
e 6 27
e 6 29
e 6 30
e 7 8
e 7 9
e 7 12
e 7 13
e 7 14
e 7 15
e 7 16
e 7 17
e 7 20
e 7 22
e 7 26
e 7 28
e 7 29
e 7 30
e 8 9
e 8 16
e 8 18
e 8 21
e 8 22
e 8 25
e 8 26
e 8 27
e 9 13
e 9 14
e 9 23
e 9 24
e 9 25
e 9 27
e 9 28
e 10 14
e 10 21
e 10 22
e 10 27
e 10 28
e 10 29
e 10 30
e 11 12
e 11 14
e 11 15
e 11 16
e 11 18
e 11 20
e 11 23
e 11 24
e 11 26
e 11 27
e 12 14
e 12 17
e 12 20
e 12 21
e 12 22
e 12 24
e 12 27
e 12 28
e 12 29
e 12 30
e 13 14
e 13 19
e 13 23
e 13 24
e 13 25
e 13 26
e 14 17
e 14 18
e 14 19
e 14 22
e 14 24
e 14 25
e 14 29
e 15 16
e 15 18
e 15 19
e 15 20
e 15 22
e 15 23
e 15 25
e 16 17
e 16 19
e 16 20
e 16 23
e 16 24
e 16 27
e 16 29
e 17 20
e 17 21
e 17 24
e 17 25
e 17 26
e 17 27
e 17 28
e 17 29
e 18 23
e 18 24
e 18 27
e 19 21
e 19 22
e 19 25
e 20 22
e 20 24
e 20 27
e 20 28
e 20 30
e 21 23
e 21 24
e 21 27
e 21 29
e 21 30
e 22 24
e 22 26
e 22 27
e 22 28
e 23 26
e 23 28
e 23 29
e 24 25
e 24 28
e 24 29
e 24 30
e 25 30
e 26 29
e 26 30
e 27 28
e 27 30
e 28 29
e 28 30
